dates = {'2022-01-03','2022-01-04','2022-01-05','2022-01-06','2022-01-07','2022-01-08','2022-01-09','2022-01-10','2022-01-11','2022-01-12'};

daysOfWeek = [Monday,Tuesday,Wednesday,Thursday,Friday,Saturday,Sunday,Monday,Tuesday,Wednesday];

% For this week, how many people will be here.
numPeople = [164,164,164,164,164,165,165,154,154,162];

% Physical workers need 50 to 100 % more nutrients per day.
numPhysicalWorkers = [58.5,58.5,58.5,58.5,58.5,58.5,58.5,58.5,54.0,56.5];

% Males need +25% more nutrients per day.
numMen = [137,137,137,137,137,138,138,138,131,136];

% Num people who do not eat categories. contains = {none, meat, milk, gluten, egg, nut, seed, sugars}
numRefusals = [| 0,2,0,13,0,8,2,0 | 0,2,0,13,0,8,2,0 | 0,2,0,13,0,8,2,0 | 0,2,0,13,0,8,2,0 | 0,2,0,13,0,8,2,0 | 0,0,6,0,0,1,13,8 | 0,0,6,0,0,1,13,8 | 0,0,0,0,7,0,0,3 | 0,0,0,0,7,0,0,3 | 0,0,0,1,0,0,1,3 |];

